
Gurobi 11.0.1 (win64) logging started Thu May 16 18:32:17 2024

Set parameter LogFile to value "output/solver_log1.txt"
Gurobi Optimizer version 11.0.1 build v11.0.1rc0 (win64 - Windows 11.0 (22631.2))

CPU model: 11th Gen Intel(R) Core(TM) i7-1165G7 @ 2.80GHz, instruction set [SSE2|AVX|AVX2|AVX512]
Thread count: 4 physical cores, 8 logical processors, using up to 8 threads

Optimize a model with 6869 rows, 1843 columns and 135181 nonzeros
Model fingerprint: 0x0fde45b4
Variable types: 568 continuous, 1275 integer (1275 binary)
Coefficient statistics:
  Matrix range     [4e-01, 1e+05]
  Objective range  [1e+00, 1e+02]
  Bounds range     [1e+00, 1e+00]
  RHS range        [1e-02, 1e+05]

User MIP start produced solution with objective 40000.1 (0.01s)
User MIP start produced solution with objective 40000.1 (0.02s)
Loaded user MIP start with objective 40000.1

Presolve removed 1553 rows and 748 columns
Presolve time: 0.13s
Presolved: 5316 rows, 1095 columns, 103234 nonzeros
Variable types: 532 continuous, 563 integer (555 binary)

Root relaxation: objective 5.768344e+04, 2112 iterations, 0.11 seconds (0.22 work units)

    Nodes    |    Current Node    |     Objective Bounds      |     Work
 Expl Unexpl |  Obj  Depth IntInf | Incumbent    BestBd   Gap | It/Node Time

     0     0 57683.4402    0  106 40000.1094 57683.4402  44.2%     -    0s
     0     0 56950.9730    0  145 40000.1094 56950.9730  42.4%     -    0s
     0     0 56819.4750    0  127 40000.1094 56819.4750  42.0%     -    0s
     0     0 56819.4750    0  122 40000.1094 56819.4750  42.0%     -    0s
     0     0 56798.2660    0  174 40000.1094 56798.2660  42.0%     -    1s
     0     0 56674.5501    0  170 40000.1094 56674.5501  41.7%     -    1s
     0     0 56347.0684    0  172 40000.1094 56347.0684  40.9%     -    1s
     0     0 56347.0684    0  174 40000.1094 56347.0684  40.9%     -    1s
     0     0 56331.9101    0  127 40000.1094 56331.9101  40.8%     -    2s
     0     0 55762.0785    0  144 40000.1094 55762.0785  39.4%     -    2s
     0     0 55729.8621    0  144 40000.1094 55729.8621  39.3%     -    2s
     0     0 55729.8621    0  141 40000.1094 55729.8621  39.3%     -    2s
     0     0 55727.2776    0  139 40000.1094 55727.2776  39.3%     -    3s
     0     0 54881.6848    0  158 40000.1094 54881.6848  37.2%     -    3s
     0     0 54881.6848    0  154 40000.1094 54881.6848  37.2%     -    3s
     0     0 52956.4363    0  145 40000.1094 52956.4363  32.4%     -    3s
     0     0 52954.5594    0  140 40000.1094 52954.5594  32.4%     -    3s
     0     0 52954.5594    0  148 40000.1094 52954.5594  32.4%     -    3s
     0     0 52954.5594    0  155 40000.1094 52954.5594  32.4%     -    3s
     0     0 52954.5594    0  155 40000.1094 52954.5594  32.4%     -    3s
     0     0 52912.8854    0  141 40000.1094 52912.8854  32.3%     -    4s
     0     0 52748.2224    0  142 40000.1094 52748.2224  31.9%     -    4s
     0     0 52748.2224    0  144 40000.1094 52748.2224  31.9%     -    4s
     0     0 52748.2224    0  138 40000.1094 52748.2224  31.9%     -    4s
     0     0 52404.1401    0  153 40000.1094 52404.1401  31.0%     -    4s
     0     0 52404.1401    0  155 40000.1094 52404.1401  31.0%     -    4s
     0     0 52391.3945    0  159 40000.1094 52391.3945  31.0%     -    4s
     0     0 52391.3945    0  157 40000.1094 52391.3945  31.0%     -    5s
     0     0 52282.1481    0  144 40000.1094 52282.1481  30.7%     -    5s
     0     0 52282.1481    0  144 40000.1094 52282.1481  30.7%     -    5s
     0     2 52282.1481    0  144 40000.1094 52282.1481  30.7%     -    5s
H   56    61                    40007.601665 52282.1481  30.7%   693    9s
H   57    61                    40008.439181 52282.1481  30.7%   692    9s
    71    75 43834.3295   15  141 40008.4392 52282.1481  30.7%   782   10s
H   87    85                    40009.261777 52282.1481  30.7%   805   11s
H  117    97                    40009.288569 52050.9374  30.1%   782   12s
H  118    97                    40009.357337 52050.9374  30.1%   785   12s
   166   120 42757.4139    7  132 40009.3573 52050.9374  30.1%   804   15s
   305   172 45622.7477    6  144 40009.3573 49926.7169  24.8%   792   20s
H  330   176                    40010.211508 49926.7169  24.8%   788   20s
H  331   176                    40012.590813 49926.7169  24.8%   792   20s
   486   218 45436.5145   11  147 40012.5908 49055.0673  22.6%   790   25s
   655   226 41144.2432   11   92 40012.5908 48559.3063  21.4%   768   30s
   846   244 40783.4958   14  111 40012.5908 48148.1516  20.3%   749   40s
   964   255     cutoff   11      40012.5908 47579.0557  18.9%   765   45s
  1121   264     cutoff    9      40012.5908 46725.0992  16.8%   746   50s
  1368   295 42489.1589    7  145 40012.5908 45898.8932  14.7%   735   59s
  1372   291 42245.5434    8  132 40012.5908 45898.8932  14.7%   735   60s
H 1399   291                    40013.444984 45898.8932  14.7%   728   60s

Cutting planes:
  Gomory: 5
  Implied bound: 19
  MIR: 110
  RLT: 13
  BQP: 2
  PSD: 1

Explored 1401 nodes (1041672 simplex iterations) in 60.02 seconds (142.44 work units)
Thread count was 8 (of 8 available processors)

Solution count 10: 40013.4 40013.4 40012.6 ... 40000.1

Time limit reached
Best objective 4.001344498369e+04, best bound 4.589889320134e+04, gap 14.7087%
